p cnf 100 150
1 12 0
1 58 0
1 79 0
2 85 0
2 28 0
2 90 0
3 14 0
3 7 0
3 39 0
4 93 0
4 10 0
4 28 0
5 94 0
5 43 0
5 33 0
6 76 0
6 82 0
6 11 0
7 51 0
7 38 0
8 10 0
8 56 0
8 46 0
9 72 0
9 13 0
9 47 0
10 88 0
11 38 0
11 84 0
12 77 0
12 50 0
13 14 0
13 56 0
14 41 0
15 55 0
15 47 0
15 67 0
16 40 0
16 100 0
16 52 0
17 18 0
17 66 0
17 61 0
18 60 0
18 76 0
19 22 0
19 57 0
19 34 0
20 37 0
20 34 0
20 45 0
21 22 0
21 94 0
21 36 0
22 45 0
23 25 0
23 98 0
23 51 0
24 70 0
24 73 0
24 86 0
25 37 0
25 41 0
26 69 0
26 44 0
26 38 0
27 89 0
27 78 0
27 92 0
28 66 0
29 69 0
29 92 0
29 80 0
30 61 0
30 73 0
30 52 0
31 55 0
31 71 0
31 49 0
32 53 0
32 85 0
32 63 0
33 54 0
33 81 0
34 96 0
35 99 0
35 53 0
35 88 0
36 99 0
36 80 0
37 72 0
39 53 0
39 54 0
40 42 0
40 100 0
41 46 0
42 45 0
42 98 0
43 62 0
43 78 0
44 60 0
44 84 0
46 96 0
47 98 0
48 74 0
48 70 0
48 71 0
49 59 0
49 74 0
50 79 0
50 74 0
51 78 0
52 73 0
54 67 0
55 59 0
56 83 0
57 58 0
57 97 0
58 64 0
59 62 0
60 91 0
61 81 0
62 89 0
63 88 0
63 75 0
64 90 0
64 65 0
65 83 0
65 86 0
66 68 0
67 87 0
68 91 0
68 92 0
69 76 0
70 82 0
71 84 0
72 95 0
75 95 0
75 94 0
77 90 0
77 95 0
79 85 0
80 100 0
81 82 0
83 97 0
86 97 0
87 89 0
87 93 0
91 96 0
93 99 0
g -61